4 
5  14 29 44 57 
6  04 12 19 29 36 44 51 59 
7  06 14 21 29 36 44 51 59 
8  06 14 21 29 36 44 51 59 
9  06 14 21 29 36 44 51 
10  03 10 18 25 33 40 48 55 
11  03 10 18 25 33 40 48 55 
12  03 10 18 25 33 40 48 55 
13  03 10 18 25 33 40 48 55 
14  03 10 18 25 33 40 48 55 
15  03 14 22 29 36 44 52 59 
16  07 14 22 29 37 44 52 59 
17  07 14 22 29 37 44 52 59 
18  08 14 23 29 38 44 53 59 
19  07 18 25 33 40 48 55 
20  05 15 23 31 45 59 
21  14 29 44 59 
22  14 25 40 55 
23  10 30 
0 
